p cnf 7230 16
-4496 -5663 -5835 0
-4482 -5657 -5833 0
4496 -5836 0
4482 -5834 0
5835 5836 0
5833 5834 0
5831 5832 0
5653 -5832 0
-5653 -5831 0
5829 5830 0
5651 -5830 0
-5651 -5829 0
5663 -5836 0
5657 -5834 0
4508 -5838 0
5827 5828 0
